<number of tasks>
20

<cycle time>
1000

<order strength>
0,805


<task times>
1 74
2 46
3 175
4 136
5 94
6 94
7 174
8 256
9 80
10 99
11 124
12 173
13 102
14 121
15 167
16 190
17 183
18 176
19 105
20 256

<precedence relations>
1,12
2,3
2,4
3,5
3,6
4,5
4,6
5,7
5,8
6,7
6,8
7,9
7,10
8,9
8,10
8,11
9,12
10,19
10,20
11,12
12,13
12,14
13,15
13,16
14,16
14,17
15,18
15,20
16,19
16,20
17,18

<end>
